c description: Random 3-CNF over 21 variables and 89 clauses
c generator: CNFgen (0.9.2)
c copyright: (C) 2012-2022 Massimo Lauria <massimo.lauria@uniroma1.it>
c url: https://massimolauria.net/cnfgen
c command line: cnfgen --output CNF_4.28/21_bit_89_42.cnf randkcnf 3 21 89
c
p cnf 21 89
-4 6 -13 0
-12 13 -17 0
3 4 16 0
3 -7 -8 0
-3 -15 20 0
1 4 -17 0
-2 7 9 0
2 -4 21 0
-2 -10 17 0
8 -14 -18 0
2 12 19 0
-4 -7 15 0
2 4 14 0
2 3 16 0
2 -8 10 0
4 -10 -16 0
2 -11 12 0
2 -12 19 0
-1 -12 13 0
-6 13 18 0
4 -15 19 0
-6 -16 17 0
-8 11 20 0
-4 5 19 0
-9 10 -20 0
-11 -13 14 0
-2 5 -8 0
-9 15 16 0
-1 -8 -9 0
6 -10 -21 0
7 -11 20 0
-7 -9 -10 0
-5 9 19 0
13 20 21 0
3 -5 -17 0
13 -19 20 0
2 -10 13 0
4 -13 16 0
6 13 20 0
-3 12 16 0
7 8 13 0
4 -8 11 0
-6 13 -15 0
5 8 17 0
5 7 19 0
2 19 -20 0
2 -8 11 0
3 16 19 0
9 -10 -21 0
2 -11 -20 0
-1 10 17 0
-1 11 16 0
-7 -12 13 0
-1 -4 -18 0
-1 7 8 0
6 -10 19 0
-6 -10 11 0
-13 15 -20 0
1 -4 11 0
-3 14 21 0
6 7 -21 0
13 -14 20 0
-16 -17 -18 0
11 17 -18 0
-3 17 -20 0
-7 -15 19 0
12 13 -20 0
-9 -10 14 0
-8 -10 -12 0
5 -10 -12 0
7 11 12 0
-3 4 -17 0
2 3 19 0
2 12 -17 0
-10 16 -20 0
-2 3 5 0
-5 18 -20 0
7 -19 20 0
-3 9 -21 0
5 7 -14 0
3 6 15 0
-2 -10 -19 0
3 -6 16 0
-1 -15 -16 0
-3 4 13 0
3 8 -12 0
3 11 -13 0
-2 6 -16 0
-6 12 -19 0
